p cnf 50 10
x -1 -2 -3 5 9 -14 16 17 19 23 -25 -26 -27 -29 -31 -32 -34 -35 38 -40 46 48 -49 50 0
x 2 3 4 9 11 -14 16 18 -21 -22 23 28 29 -33 -35 -44 47 48 0
x 4 -5 6 -7 -10 11 14 16 17 -19 20 21 28 30 -31 -32 33 36 -42 44 -46 47 49 -50 0
x 3 -6 -7 9 -10 11 15 16 -17 19 -21 22 23 -26 -27 28 -32 35 -36 -38 40 41 42 -43 45 -46 47 -48 49 -50 0
x 3 4 6 -9 11 13 15 16 17 18 21 24 -26 27 28 -30 -31 -32 33 34 -35 36 38 40 41 43 -45 -49 50 0
x 3 4 -5 7 -10 -11 12 15 19 -21 -22 23 -24 -26 29 31 32 -34 35 -39 41 -42 50 0
x -1 -2 -3 7 -8 9 -10 -11 12 -14 15 -16 -19 -20 -21 -23 24 28 -29 31 -32 33 40 41 43 -44 -46 49 0
x -3 -7 -10 12 -20 21 22 -24 30 32 34 -38 -39 43 -49 0
x 2 -5 6 7 -8 -9 -10 11 -14 15 19 24 -25 -26 -27 28 -32 34 -38 41 -43 45 -46 47 -48 -49 0
x -1 7 11 -14 17 -19 -23 24 25 26 28 -29 -30 31 32 37 38 39 -41 -42 43 -46 -48 -50 0
g -10